(declare-sort Loc 0)
(declare-const f411_0_createList_Load Loc)
(declare-const f787_0_createList_Load Loc)
(declare-const f423_0_createList_Return Loc)
(declare-const f813_0_random_ArrayAccess Loc)
(declare-const f1_0_main_Load Loc)
(declare-const f1099_0_entry_LE Loc)
(declare-const f1201_0_entry_GT Loc)
(declare-const f1228_0_createList_LE Loc)
(declare-const __init Loc)
(assert (distinct f411_0_createList_Load f787_0_createList_Load f423_0_createList_Return f813_0_random_ArrayAccess f1_0_main_Load f1099_0_entry_LE f1201_0_entry_GT f1228_0_createList_LE __init ))

(define-fun cfg_init ( (pc Loc) (src Loc) (rel Bool) ) Bool
  (and (= pc src) rel))

(define-fun cfg_trans2 ( (pc Loc) (src Loc)
                         (pc1 Loc) (dst Loc)
                         (rel Bool) ) Bool
  (and (= pc src) (= pc1 dst) rel))

(define-fun cfg_trans3 ( (pc Loc) (exit Loc)
                         (pc1 Loc) (call Loc)
                         (pc2 Loc) (return Loc)
                         (rel Bool) ) Bool
  (and (= pc exit) (= pc1 call) (= pc2 return) rel))

(define-fun init_main ( (pc Loc) (arg1 Int) (arg2 Int) (arg3 Int) (arg4 Int) (arg5 Int) (arg6 Int) (arg7 Int) (arg8 Int) (arg9 Int) (arg10 Int) (arg11 Int) (arg12 Int) (arg13 Int) (arg14 Int) (arg15 Int) (arg16 Int) (arg17 Int) (arg18 Int) (arg19 Int) (arg20 Int) (arg21 Int) (arg22 Int) (arg23 Int) ) Bool
  (cfg_init pc __init true))

(define-fun next_main (
                 (pc Loc) (arg1 Int) (arg2 Int) (arg3 Int) (arg4 Int) (arg5 Int) (arg6 Int) (arg7 Int) (arg8 Int) (arg9 Int) (arg10 Int) (arg11 Int) (arg12 Int) (arg13 Int) (arg14 Int) (arg15 Int) (arg16 Int) (arg17 Int) (arg18 Int) (arg19 Int) (arg20 Int) (arg21 Int) (arg22 Int) (arg23 Int)
                 (pc1 Loc) (arg1P Int) (arg2P Int) (arg3P Int) (arg4P Int) (arg5P Int) (arg6P Int) (arg7P Int) (arg8P Int) (arg9P Int) (arg10P Int) (arg11P Int) (arg12P Int) (arg13P Int) (arg14P Int) (arg15P Int) (arg16P Int) (arg17P Int) (arg18P Int) (arg19P Int) (arg20P Int) (arg21P Int) (arg22P Int) (arg23P Int)
             ) Bool
  (or
    (cfg_trans2 pc f411_0_createList_Load pc1 f787_0_createList_Load (and (and (and (and (and (and (and (and (and (and (and (and (and (and (and (and (> arg2 9) (> arg2P 9)) (<= (+ arg6 5) arg2)) (<= (+ arg7 3) arg2)) (= arg1 arg1P)) (= 0 arg3P)) (= 0 arg4P)) (= arg4 arg5P)) (= 0 arg7P)) (= 0 arg8P)) (= 0 arg9P)) (= arg3 arg13P)) (= arg3 arg14P)) (= arg4 arg15P)) (= arg5 arg17P)) (= arg6 arg18P)) (= arg7 arg21P)))
    (cfg_trans2 pc f423_0_createList_Return pc1 f813_0_random_ArrayAccess (and (and (and (and (and (and (and (and (and (and (> arg1 0) (> arg2 6)) (> arg1P 6)) (<= (+ arg6 5) arg2)) (<= (+ arg7 7) arg2)) (<= (+ arg9 3) arg2)) (<= (+ arg8 7) arg2)) (= arg3 arg2P)) (= arg4 arg3P)) (= arg6 arg5P)) (= arg9 arg8P)))
    (cfg_trans2 pc f1_0_main_Load pc1 f813_0_random_ArrayAccess (exists ((x38 Int)) (and (and (and (and (> x38 (- 1)) (> arg2 0)) (> arg1 0)) (> arg1P 6)) (= arg2 arg4P))))
    (cfg_trans2 pc f813_0_random_ArrayAccess pc1 f1099_0_entry_LE (exists ((x40 Int) (x49 Int)) (and (and (and (and (and (and (and (and (and (and (and (< x40 arg4) (> x40 0)) (> arg2P (- 1))) (<= x49 arg2P)) (< arg2P arg5)) (> arg1 6)) (<= (+ arg5 5) arg1)) (<= (+ arg6 7) arg1)) (<= (+ arg8 3) arg1)) (<= (+ arg7 7) arg1)) (= arg5 arg1P)) (= arg3 arg3P))))
    (cfg_trans2 pc f1099_0_entry_LE pc1 f1099_0_entry_LE (exists ((x54 Int)) (and (and (and (and (and (and (> arg3 (- 1)) (> x54 0)) (< x54 arg3)) (< arg2 arg1)) (< x54 arg3P)) (= (- arg1 1) arg1P)) (= arg2 arg2P))))
    (cfg_trans2 pc f1099_0_entry_LE pc1 f1099_0_entry_LE (exists ((x58 Int)) (and (and (and (and (and (< arg2 arg1) (< x58 arg3)) (> arg3 (- 1))) (= (- arg1 1) arg1P)) (= arg2 arg2P)) (= 1 arg3P))))
    (cfg_trans2 pc f813_0_random_ArrayAccess pc1 f1201_0_entry_GT (exists ((x60 Int) (x69 Int)) (and (and (and (and (and (and (and (and (and (and (and (< x60 arg4) (> x60 0)) (> arg2P (- 1))) (> x69 arg2P)) (< arg2P arg5)) (> arg1 6)) (<= (+ arg5 5) arg1)) (<= (+ arg6 7) arg1)) (<= (+ arg8 3) arg1)) (<= (+ arg7 7) arg1)) (= 0 arg1P)) (= arg2 arg3P))))
    (cfg_trans2 pc f1201_0_entry_GT pc1 f1201_0_entry_GT (exists ((x74 Int)) (and (and (and (and (and (and (> arg3 (- 1)) (> x74 0)) (< x74 arg3)) (>= arg2 arg1)) (< x74 arg3P)) (= (+ arg1 1) arg1P)) (= arg2 arg2P))))
    (cfg_trans2 pc f1201_0_entry_GT pc1 f1201_0_entry_GT (exists ((x78 Int)) (and (and (and (and (and (>= arg2 arg1) (< x78 arg3)) (> arg3 (- 1))) (= (+ arg1 1) arg1P)) (= arg2 arg2P)) (= 1 arg3P))))
    (cfg_trans2 pc f1_0_main_Load pc1 f411_0_createList_Load (and (and (and (and (and (and (and (> arg1P (- 1)) (> arg2 0)) (<= (- arg2P 7) arg1)) (> arg1 0)) (> arg2P 7)) (= 1 arg5P)) (= 0 arg6P)) (= 0 arg7P)))
    (cfg_trans2 pc f787_0_createList_Load pc1 f1228_0_createList_LE (and (and (and (and (and (and (and (and (and (and (and (and (and (and (and (and (and (and (and (and (and (and (> arg2 11) (> arg1P 11)) (>= arg2 (+ arg18 5))) (>= arg2 (+ arg19 9))) (>= arg2 (+ arg20 9))) (>= arg2 (+ arg21 3))) (= arg1 arg2P)) (= arg4 arg3P)) (= arg5 arg4P)) (= arg11 arg5P)) (= arg10 arg6P)) (= arg3 arg7P)) (= arg6 arg8P)) (= arg7 arg9P)) (= arg8 arg10P)) (= arg9 arg11P)) (= arg12 arg12P)) (= arg13 arg13P)) (= arg14 arg14P)) (= arg15 arg15P)) (= arg17 arg16P)) (= arg18 arg17P)) (= arg21 arg23P)))
    (cfg_trans2 pc f1228_0_createList_LE pc1 f1228_0_createList_LE (exists ((x112 Int) (x153 Int)) (and (and (and (and (and (and (and (and (and (and (and (and (and (and (and (and (and (and (and (and (and (and (and (and (and (and (and (and (and (and (and (and (and (and (> arg2 0) (> x112 (- 1))) (> arg16 0)) (< arg16 x112)) (> arg4 0)) (> arg3 0)) (> arg7 0)) (> arg6 0)) (> arg5 0)) (> arg14 0)) (> x153 (- 1))) (> arg9 0)) (> arg12 0)) (> arg10 0)) (> arg15 0)) (> arg13 0)) (> arg11 0)) (> arg8 0)) (> arg23 (- 1))) (> arg17 (- 1))) (> arg1 11)) (> arg1P 11)) (<= (+ arg17 5) arg1)) (<= (+ arg18 9) arg1)) (<= (+ arg19 9) arg1)) (<= (+ arg20 9) arg1)) (<= (+ arg21 11) arg1)) (<= (+ arg23 3) arg1)) (<= (+ arg22 11) arg1)) (= (- arg2 1) arg2P)) (= arg3 arg3P)) (= arg4 arg4P)) (= (+ arg16 1) arg16P)) (= (+ arg17 1) arg17P)) (= (+ arg23 1) arg23P))))
    (cfg_trans2 pc __init pc1 f1_0_main_Load true)
  )
)
